Gurobi 12.0.3:   lim:time = 14400

  mip:bestbound = 1

Set parameter LogToConsole to value 1

  tech:outlev = 1

Set parameter Cuts to value 3

  cut:cuts = 3

Set parameter Presolve to value 2

  pre:solve = 2

Set parameter MIPFocus to value 2

  mip:focus = 2

Set parameter Symmetry to value 2

  mip:symmetry = 2

Set parameter InfUnbdInfo to value 1

Gurobi Optimizer version 12.0.3 build v12.0.3rc0 (win64 - Windows 11+.0 (26200.2))



CPU model: 13th Gen Intel(R) Core(TM) i7-13700K, instruction set [SSE2|AVX|AVX2]

Thread count: 16 physical cores, 24 logical processors, using up to 24 threads



Non-default parameters:

TimeLimit  14400

MIPFocus  2

Symmetry  2

Cuts  3

InfUnbdInfo  1

Presolve  2



Optimize a model with 347 rows, 613 columns and 3426 nonzeros

Model fingerprint: 0xfca1f5fc

Model has 4 quadratic objective terms

Model has 7 quadratic constraints

Variable types: 34 continuous, 579 integer (0 binary)

Coefficient statistics:

  Matrix range     [1e+00, 1e+05]

  QMatrix range    [1e+00, 1e+00]

  QLMatrix range   [1e+00, 1e+01]

  Objective range  [3e+00, 1e+02]

  QObjective range [2e+00, 2e+00]

  Bounds range     [1e+00, 1e+02]

  RHS range        [1e+00, 1e+05]

  QRHS range       [1e+02, 1e+02]

Presolve removed 36 rows and 58 columns

Presolve time: 0.06s

Presolved: 688 rows, 919 columns, 5276 nonzeros

Variable types: 165 continuous, 754 integer (675 binary)

Found heuristic solution: objective 565.9800000

Root relaxation presolve removed 20 rows and 4 columns

Root relaxation presolved: 518 rows, 767 columns, 8112 nonzeros





Root relaxation: objective 7.194842e+01, 75 iterations, 0.01 seconds (0.01 work units)



    Nodes    |    Current Node    |     Objective Bounds      |     Work

 Expl Unexpl |  Obj  Depth IntInf | Incumbent    BestBd   Gap | It/Node Time



     0     0   71.94842    0   32  565.98000   71.94842  87.3%     -    0s

H    0     0                     556.6100000   71.94842  87.1%     -    0s

H    0     0                     543.0200000   71.94842  86.8%     -    0s

     0     0   91.15684    0   36  543.02000   91.15684  83.2%     -    0s

H    0     0                     364.5700000   91.15684  75.0%     -    0s

     0     0  101.78738    0   37  364.57000  101.78738  72.1%     -    0s

     0     0  102.21736    0   39  364.57000  102.21736  72.0%     -    0s

H    0     0                     216.5700000  106.97932  50.6%     -    0s

H    0     0                     208.7200000  124.68099  40.3%     -    0s

     0     0  124.68099    0   48  208.72000  124.68099  40.3%     -    0s

     0     0  124.75052    0   27  208.72000  124.75052  40.2%     -    0s

H    0     0                     208.4000000  127.52641  38.8%     -    0s

H    0     0                     208.1000000  127.52641  38.7%     -    0s

H    0     0                     207.6900000  134.09053  35.4%     -    0s

     0     0  134.09053    0   16  207.69000  134.09053  35.4%     -    0s

     0     0  134.61069    0   33  207.69000  134.61069  35.2%     -    0s

     0     0  140.82304    0   24  207.69000  140.82304  32.2%     -    0s

     0     0  140.90565    0   24  207.69000  140.90565  32.2%     -    0s

     0     0  140.90565    0   33  207.69000  140.90565  32.2%     -    0s

     0     0  140.90565    0   62  207.69000  140.90565  32.2%     -    0s

     0     0  140.90565    0   57  207.69000  140.90565  32.2%     -    0s

     0     0  140.90565    0   25  207.69000  140.90565  32.2%     -    0s

     0     0  140.90565    0   27  207.69000  140.90565  32.2%     -    0s

     0     0  140.90565    0   15  207.69000  140.90565  32.2%     -    0s

     0     0  140.90565    0   14  207.69000  140.90565  32.2%     -    0s

     0     0  140.90565    0   61  207.69000  140.90565  32.2%     -    0s

     0     0  140.90565    0   61  207.69000  140.90565  32.2%     -    1s

     0     2  140.90565    0   50  207.69000  140.90565  32.2%     -    1s

H  177   160                     201.1000000  140.90565  29.9%  22.2    1s



Cutting planes:

  Learned: 22

  Gomory: 26

  Lift-and-project: 10

  Cover: 14

  Implied bound: 29

  Projected implied bound: 6

  Clique: 3

  MIR: 47

  StrongCG: 9

  Flow cover: 240

  Inf proof: 9

  Zero half: 79

  RLT: 78

  Relax-and-lift: 16



Explored 5637 nodes (65421 simplex iterations) in 1.57 seconds (1.55 work units)

Thread count was 24 (of 24 available processors)



Solution count 10: 201.1 207.69 208.1 ... 565.98



Optimal solution found (tolerance 1.00e-04)

Best objective 2.011000000000e+02, best bound 2.011000000000e+02, gap 0.0000%



AMPL MP initial flat model has 613 variables (0 integer, 579 binary);

Objectives: 1 quadratic; 

Constraints:  347 linear; 7 quadratic;



AMPL MP final model has 613 variables (0 integer, 579 binary);

Objectives: 1 quadratic; 

Constraints:  347 linear; 7 quadratic;





-----RESULTS INFO-----
running_time:  1.656
TC.best_bound:  201.1
TC:  201.1
MIP Gap (%):  0
=== Vehicle Routes ===
Vehicle 1: 0 → 1
Vehicle 1: 1 → 13
Vehicle 1: 3 → 17
Vehicle 1: 10 → 3
Vehicle 1: 13 → 10
Vehicle 2: 0 → 2
Vehicle 2: 2 → 17
Vehicle 3: 0 → 17

=== Full Vehicle Routes ===
Vehicle 1: 0 → 1 → 13 → 10 → 3 → 0 (88<100)
Vehicle 2: 0 → 2 → 0 (13<100)
Vehicle 3: 0 → 0 (0<100)
Arc used by MRT line: y variables:
MRT used: 10 → 11
MRT used: 13 → 12
Customer assigment to PL: u variables:
4 13
5 12
6 13
7 13
8 12
9 11
Node is served by regular vehicle: g variables:
1
2
3
10
13
Customer assigment to Home delivery: gm variables:
1
2
3
Node total demands: ntd variables:
1 13 1
2 13 1
3 12 1
7 0 0
8 0 0
9 0 0
16 0 0
10 2 1
11 0 0
12 0 0
13 61 1
14 0 0
15 0 0
Customer's demand delivered to PL: l variables:
4
5
6
7
8
9
Lockers load <= capacity:
0 <= 90
0 <= 83
2 <= 100
16 <= 70
45 <= 87
0 <= 73
0 <= 71
